BAYES
6
3 2 2 2 2 3
6
1  0
3 0 4 1
2 1 2
2 1 3
1  4
3 2 3 5

3
0.3 0.5 0.2
12
0.0 1.0 0.0 1.0 0.0 1.0 0.0 1.0 0.0 1.0 0.0 1.0
4
0.96 0.04 0.92 0.08
4
0.25 0.75 0.2 0.8
2
0.6 0.4
12
0.48 0.42 0.1 0.58 0.24 0.18 0.56 0.36 0.08 0.7 0.21 0.09